20	5
0	2	2	1
1	1	8
2	4	18	16	19	20
3	2	20	4
4	1	11
5	1	15
6	2	10	16
7	2	9	18
8	1	13
9	2	3	19
10	2	5	17
11	0
12	1	6
13	1	14
14	1	7
15	1	21
16	1	21
17	1	21
18	1	21
19	1	21
20	1	21
21	0
0	0	0	0	0	0	0
1	10	2	2	4	1	4
2	2	3	0	0	0	0
3	7	3	5	5	4	2
4	10	0	3	1	3	1
5	7	3	5	0	1	5
6	4	0	3	0	2	0
7	5	5	2	1	2	1
8	8	1	4	3	5	5
9	10	2	5	3	0	0
10	5	0	0	2	3	0
11	8	5	3	3	1	1
12	8	0	3	0	4	4
13	7	4	1	3	1	5
14	6	2	1	4	2	4
15	4	3	2	5	4	2
16	8	1	3	2	1	3
17	5	0	0	0	2	4
18	2	0	0	0	1	2
19	8	0	2	4	1	2
20	5	0	3	0	2	2
21	0	0	0	0	0	0
5	7	7	6	5
